unsat
(:added-eqs                       3839
 :arith-eq-adapter                118
 :arith-bound-propagations-lp     125
 :arith-conflicts                 420
 :arith-diseq                     1015
 :arith-fixed-eqs                 569
 :arith-gcd-calls                 11
 :arith-grobner-calls             155
 :arith-grobner-conflicts         2
 :arith-horner-calls              80
 :arith-horner-cross-nested-forms 214
 :arith-lower                     1517
 :arith-make-feasible             1845
 :arith-max-columns               108
 :arith-max-rows                  47
 :arith-nla-add-bounds            41
 :arith-nla-lemmas                305
 :arith-nla-propagate-bounds      54
 :arith-nla-propagate-eq          1123
 :arith-nra-calls                 191
 :arith-offset-eqs                333
 :arith-patches                   11
 :arith-patches-success           10
 :arith-upper                     2453
 :binary-propagations             6621
 :cnf-encoding-aux-vars           1
 :conflicts                       391
 :decisions                       6340
 :del-clause                      276
 :elim-unconstrained              16
 :final-checks                    390
 :max-memory                      43.42
 :memory                          30.13
 :minimized-lits                  379
 :mk-bool-var                     731
 :mk-clause                       793
 :mk-clause-binary                437
 :nlsat-conflicts                 15375
 :nlsat-decisions                 1826
 :nlsat-propagations              153519
 :nlsat-restarts                  11
 :nlsat-stages                    53492
 :num-allocs                      528925427
 :num-checks                      1
 :propagations                    11268
 :restarts                        3
 :rlimit-count                    2926676
 :sat-backjumps                   501
 :sat-conflicts                   501
 :sat-decisions                   1696
 :sat-del-clause                  15204
 :sat-elim-bool-vars-res          2570
 :sat-elim-clauses                1150
 :sat-elim-literals               1001
 :sat-minimized-lits              1273
 :sat-mk-clause-2ary              9130
 :sat-mk-clause-3ary              3998
 :sat-mk-clause-nary              21481
 :sat-mk-var                      5461
 :sat-probing-assigned            80
 :sat-propagations-2ary           67923
 :sat-propagations-nary           75127
 :sat-restarts                    41
 :sat-scc-elim-binary             52
 :sat-scc-elim-vars               86
 :sat-subs-resolution             246
 :sat-subs-resolution-dyn         61
 :sat-subsumed                    2655
 :sat-units                       366
 :solve-eqs-elim-vars             20
 :solve-eqs-steps                 113
 :time                            2.20
 :total-time                      2.21)
